20 90
0 1 39.4
0 2 38.3
0 3 83.2
0 4 88.2
0 5 59.4
0 6 18.2
0 7 94.1
0 8 44.8
0 9 81.2
0 10 34.1
0 11 46.1
0 12 78.4
0 13 52.9
0 14 91.3
0 15 53.0
0 16 36.9
0 17 5.6
0 18 102.0
0 19 78.0
1 2 57.5
1 3 63.2
1 4 57.6
1 5 33.4
1 6 25.6
1 7 68.7
1 8 20.7
1 9 62.4
1 10 58.1
1 11 40.1
1 12 42.1
1 13 16.3
1 14 72.3
1 15 31.6
1 16 51.0
1 17 40.3
1 18 77.0
1 19 71.3
2 3 64.5
2 4 80.0
2 5 54.2
2 6 51.3
2 7 78.8
2 8 46.6
2 9 61.6
2 10 6.9
2 11 29.8
2 12 80.4
2 13 61.9
2 14 70.2
2 15 46.7
2 16 7.7
2 17 43.8
2 18 85.1
2 19 48.6
3 4 25.3
3 5 29.8
3 6 81.4
3 7 15.2
3 8 43.5
3 9 3.1
3 10 70.7
3 11 38.2
3 12 42.8
3 13 50.4
3 14 9.1
3 15 32.5
3 16 58.1
3 17 87.7
3 18 20.7
3 19 26.6
4 5 28.9
4 6 81.0
4 7 16.7
4 8 43.5
4 9 27.9
4 10 85.2
4 11 50.3
4 12 22.3
4 13 41.6
4 14 30.4
4 15 35.9
4 16 72.6
4 17 91.5
4 18 23.2
4 19 51.3
5 6 53.7
5 7 36.2
5 8 15.2
5 9 29.4
5 10 58.6
5 11 24.8
5 12 26.7
5 13 21.1
5 14 39.0
5 15 7.6
5 16 46.6
5 17 62.9
5 18 44.4
5 19 43.3
6 7 89.8
6 8 38.6
6 9 79.9
6 10 48.8
6 11 48.5
6 12 67.4
6 13 41.4
6 14 90.2
6 15 49.0
6 16 47.5
6 17 16.6
6 18 98.0
6 19 82.1
7 8 51.2
7 9 18.3
7 10 84.9
7 11 51.0
7 12 38.6
7 13 53.8
7 14 15.7
7 15 41.3
7 16 72.1
7 17 98.1
7 18 8.3
7 19 41.1
8 9 42.4
8 10 49.6
8 11 21.8
8 12 35.6
8 13 15.8
8 14 52.5
8 15 11.1
8 16 39.1
8 17 48.1
8 18 59.4
8 19 50.8
9 10 67.9
9 11 35.7
9 12 44.3
9 13 50.2
9 14 10.3
9 15 31.3
9 16 55.3
9 17 85.7
9 18 23.6
9 19 23.7
10 11 34.9
10 12 84.2
10 13 64.2
10 14 76.7
10 15 51.0
10 16 12.8
10 17 39.5
10 18 91.4
10 19 55.5
11 12 51.5
11 13 37.4
11 14 45.6
11 15 17.6
11 16 22.3
11 17 51.1
11 18 58.2
11 19 33.6
12 13 26.0
12 14 50.1
12 15 33.9
12 16 72.7
12 17 80.6
12 18 45.5
12 19 65.1
13 14 59.4
13 15 22.8
13 16 54.5
13 17 54.8
13 18 62.0
13 19 63.5
14 15 41.5
14 16 64.2
14 17 96.0
14 18 17.3
14 19 26.9
15 16 39.0
15 17 56.9
15 18 49.4
15 19 40.9
16 17 42.5
16 18 78.7
16 19 44.5
17 18 106.1
17 19 83.3
18 19 44.2
